NAME : swiss42-R-5-3-b.1541.tour
COMMENT : Length = 1541
COMMENT : Found by LKH-3 [Keld Helsgaun] Tue Jul 30 13:14:22 2024
TYPE : TOUR
DIMENSION : 42
TOUR_SECTION
1
2
7
5
4
28
3
29
30
10
24
42
26
12
14
15
17
16
38
18
21
35
34
36
37
32
8
20
6
27
19
13
11
9
41
25
22
40
23
39
31
33
-1
EOF
